47
1000
200	2
198	3
197	3
196	4
195	3
193	3
192	3
191	2
190	2
187	4
186	1
185	1
184	4
183	2
182	2
181	4
180	2
179	4
178	1
177	3
176	4
175	2
174	1
173	1
172	4
171	3
170	2
169	3
168	3
167	1
166	1
165	1
164	2
163	2
162	3
161	2
160	4
159	3
158	2
157	5
156	3
155	4
154	5
153	1
152	2
151	1
150	2
